2105
91916
68825
64328
47314
23473
45102
53937
774
24345
92595
87414
39243
41122
44384
56240
19205
42516
93790
21993
15913
81609
64467
97747
80558
14306
21102
2605
34729
94593
76673
36835
2862
61850
17515
50176
85323
62617
4114
2449
3314
13061
89864
42557
70535
50600
98798
6092
93117
8940
28085
9030
90549
8904
23129
87459
23210
60584
90065
74292
71529
66738
27479
74391
28588
44994
40920
30263
23963
61386
49065
27278
90799
38929
69835
61334
5881
84985
83778
15350
93925
28216
24380
826
37120
63862
88286
76683
40798
78351
67327
28679
45089
94806
3071
90029
56152
60343
36644
80115
